experiments/isaplanner_proving/backup/isaplanner_with_cs/prop_17.smt20.smt2.log
22:18:48 [WARN] Collecting statistics
22:18:48 [WARN]  ex is: Z
22:18:48 [WARN]  ex is: (S Z)
22:18:48 [WARN]  ex is: (S (S Z))
22:18:48 [WARN] Proof mode: false
22:18:48 [WARN]  ex is: Z
22:18:48 [WARN]  ex is: (S Z)
22:18:48 [WARN]  ex is: (S (S Z))
22:18:48 [WARN] Proof mode: false
22:18:48 [WARN] proved: (== ?ts_ph_Nat_0 ?ts_ph_Nat_0) => true
22:18:48 [WARN] proved: (== ?ts_ph_Nat_0 Z) => (== Z ?ts_ph_Nat_0)
22:18:48 [WARN] proved: (== Z ?ts_ph_Nat_0) => (== ?ts_ph_Nat_0 Z)
22:18:48 [WARN] proved: (<=2 ?ts_ph_Nat_0 Z) => (== Z ?ts_ph_Nat_0)
22:18:48 [WARN] proved: (== Z ?ts_ph_Nat_0) => (<=2 ?ts_ph_Nat_0 Z)
22:18:48 [WARN] proved: (<=2 ?ts_ph_Nat_0 ?ts_ph_Nat_0) => true
22:18:49 [WARN] proved: (== (S Z) ?ts_ph_Nat_0) => (== ?ts_ph_Nat_0 (S Z))
22:18:49 [WARN] proved: (== ?ts_ph_Nat_0 (S Z)) => (== (S Z) ?ts_ph_Nat_0)
22:18:49 [WARN] proved: (<=2 (S ?ts_ph_Nat_0) ?ts_ph_Nat_0) => false
22:18:49 [WARN] proved: (== ?ts_ph_Nat_0 (S ?ts_ph_Nat_0)) => false
22:18:49 [WARN] proved: (== (S ?ts_ph_Nat_0) ?ts_ph_Nat_0) => false
22:18:49 [WARN] proved: (<=2 ?ts_ph_Nat_0 (S ?ts_ph_Nat_0)) => true
22:18:49 [WARN] proved: (== ?ts_ph_Nat_0 ?ts_ph_Nat_1) => (== ?ts_ph_Nat_1 ?ts_ph_Nat_0)
22:18:49 [WARN] proved: (== ?ts_ph_Nat_1 ?ts_ph_Nat_0) => (== ?ts_ph_Nat_0 ?ts_ph_Nat_1)
